nLocations = 20;
nCities = 60;
nTypes = 8;
p = [1 5 5 6 5 2 4 1 3 6 1 1 2 3 1 6 2 2 3 2 1 5 1 2 2 1 2 1 1 5 1 3 3 6 1 1 6
 2 3 6 4 4 2 4 1 6 1 5 6 3 6 2 6 4 5 4 5 4 6 5];
posCities = [[8 1 ] [7 9 ] [6 6 ] [9 5 ] [8 11 ] [0 8 ] [0 1 ] [10 4 ] [10 4 ] [3 4 ] [0 9 ] [2 4 ] [10 5 ] [7 0 ] [4 4 ] [11 1 ] [9 2 ] [6 0 ] [9 4 ] [5 9 ] [6 5 ] [1 6 ] [11 8 ] [1 10 ] [9 1 ] [6 9 ] [2 3 ] [3 1 ] [11 8 ] [3 9 ] [1 0 ] [7 1 ] [11 0 ] [2 4 ] [11 0 ] [10 10 ] [0 10 ] [6 7 ] [4 9 ] [7 9 ] [7 0 ] [0 4 ] [4 9 ] [10 10 ] [4 5 ] [5 0 ] [8 6 ] [5 6 ] [9 10 ] [3 9 ] [9 9 ] [7 1 ] [8 2 ] [1 5 ] [10 4 ] [0 2 ] [2 7 ] [4 1 ] [9 2 ] [0 8 ] ];
posLocations = [[7 9 ] [6 10 ] [6 1 ] [1 1 ] [8 11 ] [3 10 ] [2 6 ] [3 7 ] [9 1 ] [2 11 ] [4 2 ] [6 11 ] [1 0 ] [4 0 ] [2 7 ] [9 10 ] [0 7 ] [1 3 ] [9 6 ] [10 11 ] ];
d_city = [2, 4, 8, 12, 17, 22, 27, 30];
cap = [80, 77, 74, 71, 66, 63, 58, 53];
cost = [200, 181, 162, 147, 127, 107, 92, 81];
d_center = 1.9189669545996135;
